
Gurobi 11.0.2 (win64) logging started Mon Nov 25 18:21:42 2024

Set parameter LogFile to value ".\Experiments\Verification_16_eps0.0001_2\Logs\vit_6_1_6_12_i4_r1_c3.log"
Set parameter TimeLimit to value 43200
Gurobi Optimizer version 11.0.2 build v11.0.2rc0 (win64 - Windows 10.0 (19045.2))

CPU model: Intel(R) Core(TM) i7-10750H CPU @ 2.60GHz, instruction set [SSE2|AVX|AVX2]
Thread count: 6 physical cores, 12 logical processors, using up to 12 threads

Optimize a model with 1605 rows, 2535 columns and 5666 nonzeros
Model fingerprint: 0x4d7f46c2
Model has 658 quadratic constraints
Model has 210 general constraints
Variable types: 2385 continuous, 150 integer (150 binary)
Coefficient statistics:
  Matrix range     [1e-03, 1e+02]
  QMatrix range    [1e+00, 1e+00]
  QLMatrix range   [1e+00, 1e+00]
  Objective range  [1e+00, 1e+00]
  Bounds range     [1e-04, 7e+02]
  RHS range        [1e-04, 1e+02]
  QRHS range       [1e-06, 1e-06]
Presolve removed 1214 rows and 1487 columns
Presolve time: 0.02s
Presolved: 2989 rows, 1049 columns, 8908 nonzeros
Presolved model has 533 bilinear constraint(s)
Presolved model has 108 nonlinear constraint(s)

Solving non-convex MINLP

Variable types: 1036 continuous, 13 integer (13 binary)

Root relaxation: objective 5.042493e+01, 1141 iterations, 0.03 seconds (0.04 work units)

    Nodes    |    Current Node    |     Objective Bounds      |     Work
 Expl Unexpl |  Obj  Depth IntInf | Incumbent    BestBd   Gap | It/Node Time

     0     0   50.42493    0  432          -   50.42493      -     -    0s
     0     0   50.42493    0  427          -   50.42493      -     -    0s
     0     0   50.42446    0  419          -   50.42446      -     -    0s
     0     0   50.42420    0  412          -   50.42420      -     -    0s
     0     0   50.42412    0  422          -   50.42412      -     -    0s
     0     0   50.42412    0  417          -   50.42412      -     -    0s
     0     0   50.42412    0  418          -   50.42412      -     -    0s
     0     0   50.42412    0  413          -   50.42412      -     -    0s
     0     0   50.42412    0  413          -   50.42412      -     -    0s
     0     0   50.42412    0  413          -   50.42412      -     -    0s
     0     0   50.42412    0  417          -   50.42412      -     -    0s
     0     0   50.42412    0  418          -   50.42412      -     -    0s
     0     0   50.42412    0  413          -   50.42412      -     -    0s
     0     0   50.29511    0  422          -   50.29511      -     -    0s
     0     0   50.05629    0  420          -   50.05629      -     -    1s
     0     0   50.05354    0  419          -   50.05354      -     -    1s
     0     0   49.72482    0  417          -   49.72482      -     -    1s
     0     0   49.72265    0  414          -   49.72265      -     -    1s
     0     0   49.58100    0  417          -   49.58100      -     -    1s
     0     0   49.57885    0  417          -   49.57885      -     -    1s
     0     0   49.53800    0  416          -   49.53800      -     -    1s
     0     0   49.36722    0  416          -   49.36722      -     -    1s
     0     0   49.20341    0  416          -   49.20341      -     -    1s
     0     0   49.20341    0  416          -   49.20341      -     -    1s
     0     0   48.96704    0  416          -   48.96704      -     -    1s
     0     0   48.81041    0  419          -   48.81041      -     -    1s
     0     0   48.73937    0  419          -   48.73937      -     -    1s
     0     0   48.73937    0  420          -   48.73937      -     -    1s
     0     0  -10.43119    0  395          -  -10.43119      -     -    3s
     0     2  -10.43119    0  395          -  -10.43119      -     -    3s
    90    20 infeasible   13               -  -12.43928      -  51.7    5s
H 2390   918                     -12.4984106  -12.48267  0.13%  38.5    7s
  2395   921  -12.49129   25    0  -12.49841  -12.48267  0.13%  38.4   10s
  2401   927  -12.49258   32    0  -12.49841  -12.48371  0.12%  38.9   15s
H 2403   882                     -12.4984091  -12.48371  0.12%  39.5   15s

Explored 2404 nodes (101696 simplex iterations) in 15.53 seconds (11.14 work units)
Thread count was 12 (of 12 available processors)

Solution count 1: -12.4984 

Optimal solution found (tolerance 1.00e-04)
Best objective -1.249840905295e+01, best bound -1.249836182938e+01, gap 0.0004%
